decision_x1=[0,4];
decision_x2=[0,4];
decision_x3=[0,4];
decision_x4=[0,4];
decision_x5=[0,4];
random_y1=[0,4];
constraint_x2_x1=[
0,1,7.2|
0,2,2.2|
0,3,3.2|
0,4,9.4|
1,0,7.5|
1,2,1.7|
1,3,5.9|
1,4,7.1|
2,0,2.4|
2,1,2.3|
2,3,4.1|
2,4,9.8|
3,0,10|
3,1,3.5|
3,2,5.1|
3,4,2.4|
4,0,7.8|
4,1,4.1|
4,2,5.1|
4,3,4.1|
];
constraint_x3_x2=[
0,1,4.3|
0,2,0.64|
0,3,1.9|
0,4,3.8|
1,0,0.66|
1,2,9.3|
1,3,5.9|
1,4,2.3|
2,0,8.5|
2,1,2.5|
2,3,4.8|
2,4,1.1|
3,0,3.2|
3,1,8.7|
3,2,10|
3,4,7.6|
4,0,2.3|
4,1,8.2|
4,2,7.3|
4,3,2.5|
];
constraint_x4_x1=[
0,1,7.5|
0,2,3.3|
0,3,0.71|
0,4,6|
1,0,3.5|
1,2,5.3|
1,3,9.2|
1,4,9.2|
2,0,9.6|
2,1,7|
2,3,8.5|
2,4,4.2|
3,0,5.3|
3,1,1.7|
3,2,1.8|
3,4,6.3|
4,0,9.3|
4,1,1.1|
4,2,9.7|
4,3,0.14|
];
constraint_x5_x3=[
0,1,5.8|
0,2,7.3|
0,3,6.1|
0,4,9.5|
1,0,3.6|
1,2,7.3|
1,3,1.3|
1,4,6.4|
2,0,7.4|
2,1,0.9|
2,3,3.5|
2,4,0.49|
3,0,7.3|
3,1,3.6|
3,2,1|
3,4,0.26|
4,0,6|
4,1,8.5|
4,2,9.3|
4,3,1.5|
];
constraint_x5_x4=[
0,1,8.3|
0,2,7.8|
0,3,1.5|
0,4,4.3|
1,0,5.7|
1,2,3.7|
1,3,8.4|
1,4,0.04|
2,0,2.7|
2,1,9.9|
2,3,4|
2,4,9.1|
3,0,8.2|
3,1,0.27|
3,2,3.6|
3,4,5.5|
4,0,5.7|
4,1,4.9|
4,2,6|
4,3,3.9|
];
constraint_x1_y1=[
0,0,0.99|
0,1,9.3|
0,2,9.9|
0,3,3.2|
0,4,1.1|
1,0,7.1|
1,1,8.4|
1,2,2.3|
1,3,3.5|
1,4,10|
2,0,4.2|
2,1,4.1|
2,2,1.7|
2,3,0.42|
2,4,7.5|
3,0,0.41|
3,1,9.6|
3,2,8|
3,3,6.4|
3,4,2.5|
4,0,0.47|
4,1,4.5|
4,2,9.6|
4,3,0.93|
4,4,9.7|
];
initial_distribution_y1=[0.15,0.28,0.15,0.21,0.22];
transition_y1=[
0.21,0.2,0.23,0.22,0.15|
0.18,0.15,0.097,0.31,0.26|
0.076,0.35,0.11,0.42,0.042|
0.042,0.31,0.22,0.26,0.17|
0.3,0.11,0.12,0.14,0.32|
];
